p cnf 7230 17
-3128 -3174 3597 0
3128 -3597 0
-2464 -3134 -3602 0
-2460 -3140 -3600 0
-1804 -3132 -3598 0
2464 -3603 0
2460 -3601 0
1804 -3599 0
3602 3603 0
3600 3601 0
3598 3599 0
3134 -3603 0
3140 -3601 0
3132 -3599 0
2468 -3605 0
3596 3597 0
-3596 -3597 0
